(set-info :smt-lib-version 2.6)
(set-logic QF_S)
(set-info :source |
Generated by: Murphy Berzish, Mitja Kulczynski, Federico Mora, Florin Manea, Joel Day, Dirk Nowotka, Vijay Ganesh, Zhengyang Lu
Generated on: 2020-10-01
Description: Translated from a collection of real-world regex queries, AutomataArk, collected by Loris D’Antoni and Fang Wang: https://github.com/lorisdanto/automatark
Application: Evaluate solvers on real-world regex queries
Target solver: Z3str3RE, CVC4, OSTRICH, Z3seq, Z3str3, Z3-Trau
Publications: Berzish, M., Kulczynski, M., Mora, F., Manea, F., Day, J. D., Nowotka, D., & Ganesh, V. (2021, July). An SMT solver for regular expressions and linear arithmetic over string length. In CAV 2021.
|)
(set-info :license "https://creativecommons.org/licenses/by/4.0/")
(set-info :category "industrial")
(set-info :status unsat)

(declare-const X String)
(assert (str.in_re X (re.++ (re.union (re.++ ((_ re.loop 1 2) (re.range "A" "Z")) ((_ re.loop 1 2) (re.range "0" "9"))) (re.++ ((_ re.loop 1 2) (re.range "A" "Z")) (re.range "0" "9") (re.range "A" "Z"))) (re.opt (re.union (str.to_re " ") (str.to_re "\u{9}") (str.to_re "\u{a}") (str.to_re "\u{c}") (str.to_re "\u{d}"))) (str.to_re "\u{a}") (re.range "0" "9") ((_ re.loop 2 2) (re.range "A" "Z")))))
(assert (not (str.in_re X (re.++ (re.union (re.++ (str.to_re "0") (re.range "1" "9")) (re.++ (str.to_re "1") (re.range "0" "2"))) (str.to_re "/") (re.union (re.++ (str.to_re "3") (re.range "0" "1")) (re.++ (str.to_re "0") (re.range "1" "9")) (re.++ (str.to_re "2") (re.range "0" "9"))) (str.to_re "/") (re.union (re.++ (str.to_re "19") (re.range "0" "9") (re.range "0" "9")) (re.++ (str.to_re "200") (re.range "0" "3"))) (str.to_re "\u{a}")))))
(assert (str.in_re X (re.++ (re.opt (str.to_re "-")) (re.opt (str.to_re "(")) (re.opt (str.to_re ")")) (str.to_re "\u{a}") ((_ re.loop 0 3) (re.range "0" "9")) (re.* (re.++ (re.opt (str.to_re ",")) ((_ re.loop 3 3) (re.range "0" "9")))) (re.opt (str.to_re ".")) (re.* (re.range "0" "9")))))
(assert (str.in_re X (re.++ (re.* re.allchar) (str.to_re "\u{a}.") (re.union (re.++ (re.union (str.to_re "J") (str.to_re "j")) (re.union (str.to_re "P") (str.to_re "p")) (re.union (str.to_re "G") (str.to_re "g"))) (re.++ (re.union (str.to_re "G") (str.to_re "g")) (re.union (str.to_re "I") (str.to_re "i")) (re.union (str.to_re "F") (str.to_re "f"))) (re.++ (re.union (str.to_re "J") (str.to_re "j")) (re.union (str.to_re "P") (str.to_re "p")) (re.union (str.to_re "E") (str.to_re "e")) (re.union (str.to_re "G") (str.to_re "g"))) (re.++ (re.union (str.to_re "P") (str.to_re "p")) (re.union (str.to_re "N") (str.to_re "n")) (re.union (str.to_re "G") (str.to_re "g")))))))
(check-sat)

(exit)
